c nIsolatedPIs 0
c maxPI 32
p cnf 203 514
c gate 33 15 31 0
15 -33 0
31 -33 0
-15 -31 33 0
c gate 34 -15 -31 0
-15 -34 0
-31 -34 0
15 31 34 0
c gate 35 14 30 0
14 -35 0
30 -35 0
-14 -30 35 0
c gate 36 -14 -30 0
-14 -36 0
-30 -36 0
14 30 36 0
c gate 37 -13 -29 0
-13 -37 0
-29 -37 0
13 29 37 0
c gate 38 -36 -37 0
-36 -38 0
-37 -38 0
36 37 38 0
c gate 39 12 28 0
12 -39 0
28 -39 0
-12 -28 39 0
c gate 40 13 29 0
13 -40 0
29 -40 0
-13 -29 40 0
c gate 41 -39 -40 0
-39 -41 0
-40 -41 0
39 40 41 0
c gate 42 38 -41 0
38 -42 0
-41 -42 0
-38 41 42 0
c gate 43 -35 -42 0
-35 -43 0
-42 -43 0
35 42 43 0
c gate 44 -11 -27 0
-11 -44 0
-27 -44 0
11 27 44 0
c gate 45 -10 -26 0
-10 -45 0
-26 -45 0
10 26 45 0
c gate 46 9 25 0
9 -46 0
25 -46 0
-9 -25 46 0
c gate 47 -9 -25 0
-9 -47 0
-25 -47 0
9 25 47 0
c gate 48 -8 -24 0
-8 -48 0
-24 -48 0
8 24 48 0
c gate 49 -47 -48 0
-47 -49 0
-48 -49 0
47 48 49 0
c gate 50 -7 -23 0
-7 -50 0
-23 -50 0
7 23 50 0
c gate 51 -6 -22 0
-6 -51 0
-22 -51 0
6 22 51 0
c gate 52 -3 -19 0
-3 -52 0
-19 -52 0
3 19 52 0
c gate 53 2 18 0
2 -53 0
18 -53 0
-2 -18 53 0
c gate 54 -2 -18 0
-2 -54 0
-18 -54 0
2 18 54 0
c gate 55 1 17 0
1 -55 0
17 -55 0
-1 -17 55 0
c gate 56 -54 55 0
-54 -56 0
55 -56 0
54 -55 56 0
c gate 57 -53 -56 0
-53 -57 0
-56 -57 0
53 56 57 0
c gate 58 -52 -57 0
-52 -58 0
-57 -58 0
52 57 58 0
c gate 59 4 20 0
4 -59 0
20 -59 0
-4 -20 59 0
c gate 60 3 19 0
3 -60 0
19 -60 0
-3 -19 60 0
c gate 61 -59 -60 0
-59 -61 0
-60 -61 0
59 60 61 0
c gate 62 -58 61 0
-58 -62 0
61 -62 0
58 -61 62 0
c gate 63 -4 -20 0
-4 -63 0
-20 -63 0
4 20 63 0
c gate 64 -5 -21 0
-5 -64 0
-21 -64 0
5 21 64 0
c gate 65 -63 -64 0
-63 -65 0
-64 -65 0
63 64 65 0
c gate 66 -62 65 0
-62 -66 0
65 -66 0
62 -65 66 0
c gate 67 6 22 0
6 -67 0
22 -67 0
-6 -22 67 0
c gate 68 5 21 0
5 -68 0
21 -68 0
-5 -21 68 0
c gate 69 -67 -68 0
-67 -69 0
-68 -69 0
67 68 69 0
c gate 70 -66 69 0
-66 -70 0
69 -70 0
66 -69 70 0
c gate 71 -51 -70 0
-51 -71 0
-70 -71 0
51 70 71 0
c gate 72 -50 71 0
-50 -72 0
71 -72 0
50 -71 72 0
c gate 73 7 23 0
7 -73 0
23 -73 0
-7 -23 73 0
c gate 74 8 24 0
8 -74 0
24 -74 0
-8 -24 74 0
c gate 75 -73 -74 0
-73 -75 0
-74 -75 0
73 74 75 0
c gate 76 -72 75 0
-72 -76 0
75 -76 0
72 -75 76 0
c gate 77 49 -76 0
49 -77 0
-76 -77 0
-49 76 77 0
c gate 78 -46 -77 0
-46 -78 0
-77 -78 0
46 77 78 0
c gate 79 -45 -78 0
-45 -79 0
-78 -79 0
45 78 79 0
c gate 80 10 26 0
10 -80 0
26 -80 0
-10 -26 80 0
c gate 81 11 27 0
11 -81 0
27 -81 0
-11 -27 81 0
c gate 82 -80 -81 0
-80 -82 0
-81 -82 0
80 81 82 0
c gate 83 -79 82 0
-79 -83 0
82 -83 0
79 -82 83 0
c gate 84 -44 -83 0
-44 -84 0
-83 -84 0
44 83 84 0
c gate 85 -12 -28 0
-12 -85 0
-28 -85 0
12 28 85 0
c gate 86 38 -85 0
38 -86 0
-85 -86 0
-38 85 86 0
c gate 87 84 86 0
84 -87 0
86 -87 0
-84 -86 87 0
c gate 88 43 -87 0
43 -88 0
-87 -88 0
-43 87 88 0
c gate 89 -34 -88 0
-34 -89 0
-88 -89 0
34 88 89 0
c gate 90 -33 -89 0
-33 -90 0
-89 -90 0
33 89 90 0
c gate 91 -16 -32 0
-16 -91 0
-32 -91 0
16 32 91 0
c gate 92 16 32 0
16 -92 0
32 -92 0
-16 -32 92 0
c gate 93 -91 -92 0
-91 -93 0
-92 -93 0
91 92 93 0
c gate 94 -90 -93 0
-90 -94 0
-93 -94 0
90 93 94 0
c gate 95 -33 43 0
-33 -95 0
43 -95 0
33 -43 95 0
c gate 96 -34 -95 0
-34 -96 0
-95 -96 0
34 95 96 0
c gate 97 94 -96 0
94 -97 0
-96 -97 0
-94 96 97 0
c gate 98 -39 -85 0
-39 -98 0
-85 -98 0
39 85 98 0
c gate 99 84 98 0
84 -99 0
98 -99 0
-84 -98 99 0
c gate 100 -35 -36 0
-35 -100 0
-36 -100 0
35 36 100 0
c gate 101 -37 -40 0
-37 -101 0
-40 -101 0
37 40 101 0
c gate 102 100 101 0
100 -102 0
101 -102 0
-100 -101 102 0
c gate 103 99 -102 0
99 -103 0
-102 -103 0
-99 102 103 0
c gate 104 -33 -34 0
-33 -104 0
-34 -104 0
33 34 104 0
c gate 105 43 -104 0
43 -105 0
-104 -105 0
-43 104 105 0
c gate 106 87 105 0
87 -106 0
105 -106 0
-87 -105 106 0
c gate 107 -103 -106 0
-103 -107 0
-106 -107 0
103 106 107 0
c gate 108 -97 107 0
-97 -108 0
107 -108 0
97 -107 108 0
c gate 109 50 -74 0
50 -109 0
-74 -109 0
-50 74 109 0
c gate 110 49 -109 0
49 -110 0
-109 -110 0
-49 109 110 0
c gate 111 -46 -80 0
-46 -111 0
-80 -111 0
46 80 111 0
c gate 112 -110 111 0
-110 -112 0
111 -112 0
110 -111 112 0
c gate 113 -44 -45 0
-44 -113 0
-45 -113 0
44 45 113 0
c gate 114 -112 113 0
-112 -114 0
113 -114 0
112 -113 114 0
c gate 115 -81 -114 0
-81 -115 0
-114 -115 0
81 114 115 0
c gate 116 -98 115 0
-98 -116 0
115 -116 0
98 -115 116 0
c gate 117 84 -116 0
84 -117 0
-116 -117 0
-84 116 117 0
c gate 118 98 -115 0
98 -118 0
-115 -118 0
-98 115 118 0
c gate 119 -84 -118 0
-84 -119 0
-118 -119 0
84 118 119 0
c gate 120 -117 -119 0
-117 -120 0
-119 -120 0
117 119 120 0
c gate 121 108 -120 0
108 -121 0
-120 -121 0
-108 120 121 0
c gate 122 -50 -73 0
-50 -122 0
-73 -122 0
50 73 122 0
c gate 123 -48 -74 0
-48 -123 0
-74 -123 0
48 74 123 0
c gate 124 122 123 0
122 -124 0
123 -124 0
-122 -123 124 0
c gate 125 -71 124 0
-71 -125 0
124 -125 0
71 -124 125 0
c gate 126 -99 -125 0
-99 -126 0
-125 -126 0
99 125 126 0
c gate 127 -121 -126 0
-121 -127 0
-126 -127 0
121 126 127 0
c gate 128 -46 -47 0
-46 -128 0
-47 -128 0
46 47 128 0
c gate 129 -6 22 0
-6 -129 0
22 -129 0
6 -22 129 0
c gate 130 2 -18 0
2 -130 0
-18 -130 0
-2 18 130 0
c gate 131 -1 17 0
-1 -131 0
17 -131 0
1 -17 131 0
c gate 132 -130 131 0
-130 -132 0
131 -132 0
130 -131 132 0
c gate 133 -3 19 0
-3 -133 0
19 -133 0
3 -19 133 0
c gate 134 -2 18 0
-2 -134 0
18 -134 0
2 -18 134 0
c gate 135 -133 -134 0
-133 -135 0
-134 -135 0
133 134 135 0
c gate 136 -132 135 0
-132 -136 0
135 -136 0
132 -135 136 0
c gate 137 4 -20 0
4 -137 0
-20 -137 0
-4 20 137 0
c gate 138 3 -19 0
3 -138 0
-19 -138 0
-3 19 138 0
c gate 139 -137 -138 0
-137 -139 0
-138 -139 0
137 138 139 0
c gate 140 -136 139 0
-136 -140 0
139 -140 0
136 -139 140 0
c gate 141 -5 21 0
-5 -141 0
21 -141 0
5 -21 141 0
c gate 142 -4 20 0
-4 -142 0
20 -142 0
4 -20 142 0
c gate 143 -141 -142 0
-141 -143 0
-142 -143 0
141 142 143 0
c gate 144 -140 143 0
-140 -144 0
143 -144 0
140 -143 144 0
c gate 145 5 -21 0
5 -145 0
-21 -145 0
-5 21 145 0
c gate 146 6 -22 0
6 -146 0
-22 -146 0
-6 22 146 0
c gate 147 -145 -146 0
-145 -147 0
-146 -147 0
145 146 147 0
c gate 148 -144 147 0
-144 -148 0
147 -148 0
144 -147 148 0
c gate 149 -129 -148 0
-129 -149 0
-148 -149 0
129 148 149 0
c gate 150 -122 -149 0
-122 -150 0
-149 -150 0
122 149 150 0
c gate 151 -7 23 0
-7 -151 0
23 -151 0
7 -23 151 0
c gate 152 -123 -151 0
-123 -152 0
-151 -152 0
123 151 152 0
c gate 153 -150 152 0
-150 -153 0
152 -153 0
150 -152 153 0
c gate 154 -128 153 0
-128 -154 0
153 -154 0
128 -153 154 0
c gate 155 -45 -80 0
-45 -155 0
-80 -155 0
45 80 155 0
c gate 156 154 -155 0
154 -156 0
-155 -156 0
-154 155 156 0
c gate 157 -44 -81 0
-44 -157 0
-81 -157 0
44 81 157 0
c gate 158 156 157 0
156 -158 0
157 -158 0
-156 -157 158 0
c gate 159 122 149 0
122 -159 0
149 -159 0
-122 -149 159 0
c gate 160 -150 -159 0
-150 -160 0
-159 -160 0
150 159 160 0
c gate 161 122 -146 0
122 -161 0
-146 -161 0
-122 146 161 0
c gate 162 -122 146 0
-122 -162 0
146 -162 0
122 -146 162 0
c gate 163 -161 -162 0
-161 -163 0
-162 -163 0
161 162 163 0
c gate 164 -160 -163 0
-160 -164 0
-163 -164 0
160 163 164 0
c gate 165 160 163 0
160 -165 0
163 -165 0
-160 -163 165 0
c gate 166 -164 -165 0
-164 -166 0
-165 -166 0
164 165 166 0
c gate 167 89 95 0
89 -167 0
95 -167 0
-89 -95 167 0
c gate 168 -94 167 0
-94 -168 0
167 -168 0
94 -167 168 0
c gate 169 166 -168 0
166 -169 0
-168 -169 0
-166 168 169 0
c gate 170 127 169 0
127 -170 0
169 -170 0
-127 -169 170 0
c gate 171 -164 -170 0
-164 -171 0
-170 -171 0
164 170 171 0
c gate 172 123 -129 0
123 -172 0
-129 -172 0
-123 129 172 0
c gate 173 165 172 0
165 -173 0
172 -173 0
-165 -172 173 0
c gate 174 171 -173 0
171 -174 0
-173 -174 0
-171 173 174 0
c gate 175 -153 174 0
-153 -175 0
174 -175 0
153 -174 175 0
c gate 176 -156 -175 0
-156 -176 0
-175 -176 0
156 175 176 0
c gate 177 -158 -176 0
-158 -177 0
-176 -177 0
158 176 177 0
c gate 178 -10 26 0
-10 -178 0
26 -178 0
10 -26 178 0
c gate 179 8 -24 0
8 -179 0
-24 -179 0
-8 24 179 0
c gate 180 -128 179 0
-128 -180 0
179 -180 0
128 -179 180 0
c gate 181 9 -25 0
9 -181 0
-25 -181 0
-9 25 181 0
c gate 182 -180 -181 0
-180 -182 0
-181 -182 0
180 181 182 0
c gate 183 -154 182 0
-154 -183 0
182 -183 0
154 -182 183 0
c gate 184 -178 -183 0
-178 -184 0
-183 -184 0
178 183 184 0
c gate 185 10 -26 0
10 -185 0
-26 -185 0
-10 26 185 0
c gate 186 -157 -185 0
-157 -186 0
-185 -186 0
157 185 186 0
c gate 187 -184 186 0
-184 -187 0
186 -187 0
184 -186 187 0
c gate 188 -177 -187 0
-177 -188 0
-187 -188 0
177 187 188 0
c gate 189 -93 -98 0
-93 -189 0
-98 -189 0
93 98 189 0
c gate 190 -100 -101 0
-100 -190 0
-101 -190 0
100 101 190 0
c gate 191 -104 190 0
-104 -191 0
190 -191 0
104 -190 191 0
c gate 192 189 191 0
189 -192 0
191 -192 0
-189 -191 192 0
c gate 193 187 192 0
187 -193 0
192 -193 0
-187 -192 193 0
c gate 194 -188 -193 0
-188 -194 0
-193 -194 0
188 193 194 0
c gate 195 -127 194 0
-127 -195 0
194 -195 0
127 -194 195 0
c gate 196 -51 70 0
-51 -196 0
70 -196 0
51 -70 196 0
c gate 197 51 122 0
51 -197 0
122 -197 0
-51 -122 197 0
c gate 198 -196 -197 0
-196 -198 0
-197 -198 0
196 197 198 0
c gate 199 -120 -198 0
-120 -199 0
-198 -199 0
120 198 199 0
c gate 200 -99 -199 0
-99 -200 0
-199 -200 0
99 199 200 0
c gate 201 108 -200 0
108 -201 0
-200 -201 0
-108 200 201 0
c gate 202 -194 -201 0
-194 -202 0
-201 -202 0
194 201 202 0
c gate 203 -195 -202 0
-195 -203 0
-202 -203 0
195 202 203 0
c PO
203 0
